
Gurobi 7.0.2 (linux64, Python) logging started Mon May  8 17:08:57 2017


Gurobi 7.0.2 (linux64, Python) logging started Mon May  8 17:48:18 2017


Gurobi 7.0.2 (linux64, Python) logging started Mon May  8 17:50:49 2017


Gurobi 7.0.2 (linux64, Python) logging started Mon May  8 17:51:00 2017


Gurobi 7.0.2 (linux64, Python) logging started Mon May  8 17:51:28 2017


Gurobi 7.0.2 (linux64, Python) logging started Mon Jun 11 14:30:51 2018


Gurobi 7.0.2 (linux64, Python) logging started Mon Jun 11 14:45:24 2018


Gurobi 7.0.2 (linux64, Python) logging started Mon Jun 11 14:45:54 2018


Gurobi 7.0.2 (linux64, Python) logging started Mon Jun 11 14:45:57 2018


Gurobi 7.0.2 (linux64, Python) logging started Mon Jun 11 14:46:04 2018


Gurobi 7.0.2 (linux64, Python) logging started Mon Jun 25 12:38:54 2018


Gurobi 7.0.2 (linux64, Python) logging started Mon Jun 25 12:40:12 2018


Gurobi 7.0.2 (linux64, Python) logging started Mon Jun 25 12:53:46 2018


Gurobi 7.0.2 (linux64, Python) logging started Mon Jun 25 12:54:17 2018


Gurobi 7.0.2 (linux64, Python) logging started Mon Jun 25 12:54:21 2018

